Set parameter Username
Academic license - for non-commercial use only - expires 2024-12-10
Set parameter LazyConstraints to value 1
Set parameter TimeLimit to value 600
Gurobi Optimizer version 10.0.0 build v10.0.0rc2 (linux64)

CPU model: Intel(R) Core(TM) i5-4590 CPU @ 3.30GHz, instruction set [SSE2|AVX|AVX2]
Thread count: 4 physical cores, 4 logical processors, using up to 4 threads

Optimize a model with 389 rows, 94 columns and 405 nonzeros
Model fingerprint: 0xc6883cbb
Variable types: 0 continuous, 94 integer (94 binary)
Coefficient statistics:
  Matrix range     [1e+00, 1e+00]
  Objective range  [1e+00, 1e+01]
  Bounds range     [1e+00, 1e+00]
  RHS range        [1e+00, 1e+00]
Presolve removed 380 rows and 3 columns
Presolve time: 0.00s
Presolved: 9 rows, 91 columns, 24 nonzeros
Variable types: 0 continuous, 91 integer (91 binary)

Root relaxation: objective 4.300000e+01, 10 iterations, 0.00 seconds (0.00 work units)

    Nodes    |    Current Node    |     Objective Bounds      |     Work
 Expl Unexpl |  Obj  Depth IntInf | Incumbent    BestBd   Gap | It/Node Time

     0     0   43.00000    0    -          -   43.00000      -     -    0s
     0     0   43.50000    0    3          -   43.50000      -     -    0s
     0     0   59.00000    0    -          -   59.00000      -     -    0s
     0     0   60.00000    0    -          -   60.00000      -     -    0s
     0     0   61.00000    0    -          -   61.00000      -     -    0s
     0     0   64.00000    0    -          -   64.00000      -     -    0s
H    0     0                     186.0000000   64.00000  65.6%     -    0s
     0     0   64.00000    0    4  186.00000   64.00000  65.6%     -    0s
     0     0   73.00000    0    -  186.00000   73.00000  60.8%     -    0s
H    0     0                     184.0000000   73.50000  60.1%     -    0s
     0     0   73.50000    0    4  184.00000   73.50000  60.1%     -    0s
     0     0   78.50000    0    7  184.00000   78.50000  57.3%     -    0s
H    0     0                     138.0000000   78.50000  43.1%     -    0s
     0     2   83.00000    0    6  138.00000   83.00000  39.9%     -    0s
H    7     9                     136.0000000   93.20833  31.5%  15.6    0s
H   24    24                     128.0000000   99.23529  22.5%  18.7    0s
H   33    33                     121.0000000   99.28571  17.9%  19.4    1s
H  194   164                     112.0000000   99.33333  11.3%  19.1    2s
H  422   228                     111.0000000  107.00000  3.60%  13.9    4s
   625   191  110.00000    9   10  111.00000  108.06667  2.64%  12.1    5s

Cutting planes:
  User: 115
  MIR: 1
  Lazy constraints: 124

Explored 954 nodes (9226 simplex iterations) in 5.95 seconds (0.16 work units)
Thread count was 4 (of 4 available processors)

Solution count 8: 111 112 121 ... 186

Optimal solution found (tolerance 1.00e-04)
Best objective 1.110000000000e+02, best bound 1.110000000000e+02, gap 0.0000%

User-callback calls 2326, time in user-callback 5.71 sec
